; benchmark generated from python API
(set-info :status unknown)
(declare-fun strlen_85_64 () (_ BitVec 64))
(declare-fun args_1_8 () (_ BitVec 8))
(declare-fun strlen_83_64 () (_ BitVec 64))
(declare-fun strncmp_ret_84_32 () (_ BitVec 32))
(declare-fun strncmp_ret_86_32 () (_ BitVec 32))
(declare-fun file_0_/proc/self/loginuid_0_89_96 () (_ BitVec 96))
(declare-fun num_bytes_91_64 () (_ BitVec 64))
(declare-fun num_bytes_93_64 () (_ BitVec 64))
(declare-fun num_bytes_92_64 () (_ BitVec 64))
(declare-fun filesize_file_0_/proc/self/loginuid_88_64 () (_ BitVec 64))
(declare-fun syscall_stub_ioctl_106_32 () (_ BitVec 32))
(declare-fun syscall_stub_newfstatat_131_64 () (_ BitVec 64))
(declare-fun syscall_stub_readlink_166_64 () (_ BitVec 64))
(declare-fun strlen_1378_64 () (_ BitVec 64))
(declare-fun mem_7fffffffffef420_193_64 () (_ BitVec 64))
(declare-fun syscall_stub_newfstatat_282_64 () (_ BitVec 64))
(declare-fun mem_7fffffffffef038_451_64 () (_ BitVec 64))
(declare-fun mem_7fffffffffeefa8_452_64 () (_ BitVec 64))
(declare-fun mem_7fffffffffeefa0_499_64 () (_ BitVec 64))
(declare-fun mem_7fffffffffef030_500_64 () (_ BitVec 64))
(declare-fun mem_7fffffffffef048_551_32 () (_ BitVec 32))
(declare-fun mem_7fffffffffeefc8_612_64 () (_ BitVec 64))
(declare-fun mem_7fffffffffef058_613_64 () (_ BitVec 64))
(declare-fun access_2743_32 () (_ BitVec 32))
(declare-fun access_3132_32 () (_ BitVec 32))
(declare-fun mem_2c_3785_264 () (_ BitVec 264))
(declare-fun strlen_3786_64 () (_ BitVec 64))
(assert
 (let ((?x751 (bvadd (_ bv576460752303357826 64) strlen_85_64)))
 (let (($x69 (= (_ bv0 8) args_1_8)))
 (let ((?x46 (ite $x69 (_ bv576460752303357826 64) (_ bv576460752303357827 64))))
 (= ?x46 ?x751)))))
(assert
 (let ((?x101 (bvadd (_ bv576460752303357826 64) strlen_83_64)))
 (let (($x69 (= (_ bv0 8) args_1_8)))
 (let ((?x46 (ite $x69 (_ bv576460752303357826 64) (_ bv576460752303357827 64))))
 (= ?x46 ?x101)))))
(assert
 (let (($x104 (bvule (_ bv2 64) strlen_83_64)))
 (let (($x48 (= (_ bv2 64) strlen_83_64)))
 (let (($x122 (or $x48 $x104)))
 (let (($x123 (not $x122)))
 (let (($x57 (= (_ bv45 8) args_1_8)))
 (let (($x121 (not $x57)))
 (or $x121 $x123))))))))
(assert
 (= (_ bv1 32) strncmp_ret_84_32))
(assert
 (= (_ bv1 32) strncmp_ret_86_32))
(assert
 true)
(assert
 (let ((?x1587 ((_ extract 87 86) file_0_/proc/self/loginuid_0_89_96)))
 (let (($x4338 (= (_ bv0 2) ?x1587)))
 (let (($x4316 (not $x4338)))
 (let ((?x225 ((_ extract 87 80) file_0_/proc/self/loginuid_0_89_96)))
 (let (($x501 (bvule (_ bv48 8) ?x225)))
 (let (($x2035 (not $x501)))
 (let ((?x1649 ((_ extract 85 80) file_0_/proc/self/loginuid_0_89_96)))
 (let (($x1456 (bvule ?x1649 (_ bv57 6))))
 (let (($x2325 (not $x1456)))
 (let (($x4317 (or $x2325 $x2035 $x4316)))
 (let (($x732 (= (_ bv1 64) num_bytes_91_64)))
 (let (($x4563 (not $x732)))
 (let ((?x407 ((_ extract 79 78) file_0_/proc/self/loginuid_0_89_96)))
 (let (($x4310 (= (_ bv0 2) ?x407)))
 (let (($x4311 (not $x4310)))
 (let ((?x1822 ((_ extract 79 72) file_0_/proc/self/loginuid_0_89_96)))
 (let (($x426 (bvule (_ bv48 8) ?x1822)))
 (let (($x2293 (not $x426)))
 (let ((?x661 ((_ extract 77 72) file_0_/proc/self/loginuid_0_89_96)))
 (let (($x1829 (bvule ?x661 (_ bv57 6))))
 (let (($x1896 (not $x1829)))
 (let (($x4295 (or $x1896 $x2293 $x4311)))
 (let (($x4659 (not $x4295)))
 (let (($x4653 (or $x4659 $x4563 $x4317)))
 (let (($x4580 (not $x4653)))
 (let (($x4599 (not $x4317)))
 (let (($x323 (= (_ bv0 64) num_bytes_91_64)))
 (let (($x4643 (not $x323)))
 (let (($x4635 (or $x4643 $x4599)))
 (let (($x4647 (not $x4635)))
 (let (($x4308 (or $x4317 $x4295)))
 (let (($x1648 (= (_ bv2 64) num_bytes_91_64)))
 (let (($x4328 (not $x1648)))
 (let ((?x1589 ((_ extract 71 70) file_0_/proc/self/loginuid_0_89_96)))
 (let (($x4240 (= (_ bv0 2) ?x1589)))
 (let (($x4341 (not $x4240)))
 (let ((?x1897 ((_ extract 71 64) file_0_/proc/self/loginuid_0_89_96)))
 (let (($x487 (bvule (_ bv48 8) ?x1897)))
 (let (($x2659 (not $x487)))
 (let ((?x2184 ((_ extract 69 64) file_0_/proc/self/loginuid_0_89_96)))
 (let (($x409 (bvule ?x2184 (_ bv57 6))))
 (let (($x2427 (not $x409)))
 (let (($x4337 (or $x2427 $x2659 $x4341)))
 (let (($x4327 (not $x4337)))
 (let (($x4672 (or $x4327 $x4328 $x4308)))
 (let (($x4593 (not $x4672)))
 (let (($x4259 (or $x4337 $x4308)))
 (let (($x147 (= (_ bv3 64) num_bytes_91_64)))
 (let (($x4339 (not $x147)))
 (let ((?x686 ((_ extract 63 62) file_0_/proc/self/loginuid_0_89_96)))
 (let (($x4343 (= (_ bv0 2) ?x686)))
 (let (($x4344 (not $x4343)))
 (let ((?x1961 ((_ extract 63 56) file_0_/proc/self/loginuid_0_89_96)))
 (let (($x2224 (bvule (_ bv48 8) ?x1961)))
 (let (($x533 (not $x2224)))
 (let ((?x1708 ((_ extract 61 56) file_0_/proc/self/loginuid_0_89_96)))
 (let (($x1879 (bvule ?x1708 (_ bv57 6))))
 (let (($x1746 (not $x1879)))
 (let (($x4340 (or $x1746 $x533 $x4344)))
 (let (($x4336 (not $x4340)))
 (let (($x4342 (or $x4336 $x4339 $x4259)))
 (let (($x4326 (not $x4342)))
 (let (($x4262 (or $x4340 $x4259)))
 (let (($x1586 (= (_ bv4 64) num_bytes_91_64)))
 (let (($x4358 (not $x1586)))
 (let ((?x1871 ((_ extract 55 54) file_0_/proc/self/loginuid_0_89_96)))
 (let (($x4237 (= (_ bv0 2) ?x1871)))
 (let (($x4359 (not $x4237)))
 (let ((?x2030 ((_ extract 55 48) file_0_/proc/self/loginuid_0_89_96)))
 (let (($x2735 (bvule (_ bv48 8) ?x2030)))
 (let (($x478 (not $x2735)))
 (let ((?x335 ((_ extract 53 48) file_0_/proc/self/loginuid_0_89_96)))
 (let (($x1207 (bvule ?x335 (_ bv57 6))))
 (let (($x1652 (not $x1207)))
 (let (($x4360 (or $x1652 $x478 $x4359)))
 (let (($x4312 (not $x4360)))
 (let (($x4361 (or $x4312 $x4358 $x4262)))
 (let (($x4364 (not $x4361)))
 (let (($x4368 (or $x4360 $x4262)))
 (let (($x663 (= (_ bv5 64) num_bytes_91_64)))
 (let (($x4357 (not $x663)))
 (let ((?x2657 ((_ extract 47 46) file_0_/proc/self/loginuid_0_89_96)))
 (let (($x4366 (= (_ bv0 2) ?x2657)))
 (let (($x4362 (not $x4366)))
 (let ((?x2091 ((_ extract 47 40) file_0_/proc/self/loginuid_0_89_96)))
 (let (($x2136 (bvule (_ bv48 8) ?x2091)))
 (let (($x2697 (not $x2136)))
 (let ((?x2137 ((_ extract 45 40) file_0_/proc/self/loginuid_0_89_96)))
 (let (($x172 (bvule ?x2137 (_ bv57 6))))
 (let (($x2123 (not $x172)))
 (let (($x4363 (or $x2123 $x2697 $x4362)))
 (let (($x4356 (not $x4363)))
 (let (($x4294 (or $x4356 $x4357 $x4368)))
 (let (($x4309 (not $x4294)))
 (let (($x4369 (or $x4363 $x4368)))
 (let (($x425 (= (_ bv6 64) num_bytes_91_64)))
 (let (($x4353 (not $x425)))
 (let ((?x313 ((_ extract 39 38) file_0_/proc/self/loginuid_0_89_96)))
 (let (($x4252 (= (_ bv0 2) ?x313)))
 (let (($x4138 (not $x4252)))
 (let ((?x2147 ((_ extract 39 32) file_0_/proc/self/loginuid_0_89_96)))
 (let (($x1577 (bvule (_ bv48 8) ?x2147)))
 (let (($x1552 (not $x1577)))
 (let ((?x167 ((_ extract 37 32) file_0_/proc/self/loginuid_0_89_96)))
 (let (($x332 (bvule ?x167 (_ bv57 6))))
 (let (($x2065 (not $x332)))
 (let (($x4195 (or $x2065 $x1552 $x4138)))
 (let (($x4352 (not $x4195)))
 (let (($x4354 (or $x4352 $x4353 $x4369)))
 (let (($x4355 (not $x4354)))
 (let (($x4370 (or $x4195 $x4369)))
 (let (($x702 (= (_ bv7 64) num_bytes_91_64)))
 (let (($x4349 (not $x702)))
 (let ((?x2267 ((_ extract 31 30) file_0_/proc/self/loginuid_0_89_96)))
 (let (($x4243 (= (_ bv0 2) ?x2267)))
 (let (($x3927 (not $x4243)))
 (let ((?x2200 ((_ extract 31 24) file_0_/proc/self/loginuid_0_89_96)))
 (let (($x1674 (bvule (_ bv48 8) ?x2200)))
 (let (($x1820 (not $x1674)))
 (let ((?x655 ((_ extract 29 24) file_0_/proc/self/loginuid_0_89_96)))
 (let (($x1903 (bvule ?x655 (_ bv57 6))))
 (let (($x2380 (not $x1903)))
 (let (($x4292 (or $x2380 $x1820 $x3927)))
 (let (($x4348 (not $x4292)))
 (let (($x4350 (or $x4348 $x4349 $x4370)))
 (let (($x4351 (not $x4350)))
 (let (($x4371 (or $x4292 $x4370)))
 (let (($x161 (= (_ bv8 64) num_bytes_91_64)))
 (let (($x4331 (not $x161)))
 (let ((?x2068 ((_ extract 23 22) file_0_/proc/self/loginuid_0_89_96)))
 (let (($x4246 (= (_ bv0 2) ?x2068)))
 (let (($x4177 (not $x4246)))
 (let ((?x2351 ((_ extract 23 16) file_0_/proc/self/loginuid_0_89_96)))
 (let (($x1767 (bvule (_ bv48 8) ?x2351)))
 (let (($x1717 (not $x1767)))
 (let ((?x1765 ((_ extract 21 16) file_0_/proc/self/loginuid_0_89_96)))
 (let (($x2422 (bvule ?x1765 (_ bv57 6))))
 (let (($x771 (not $x2422)))
 (let (($x3853 (or $x771 $x1717 $x4177)))
 (let (($x4330 (not $x3853)))
 (let (($x4293 (or $x4330 $x4331 $x4371)))
 (let (($x4291 (not $x4293)))
 (let (($x4372 (or $x3853 $x4371)))
 (let (($x168 (= (_ bv9 64) num_bytes_91_64)))
 (let (($x4377 (not $x168)))
 (let ((?x2294 ((_ extract 15 14) file_0_/proc/self/loginuid_0_89_96)))
 (let (($x4249 (= (_ bv0 2) ?x2294)))
 (let (($x4273 (not $x4249)))
 (let ((?x2420 ((_ extract 15 8) file_0_/proc/self/loginuid_0_89_96)))
 (let (($x1842 (bvule (_ bv48 8) ?x2420)))
 (let (($x2019 (not $x1842)))
 (let ((?x2411 ((_ extract 13 8) file_0_/proc/self/loginuid_0_89_96)))
 (let (($x1742 (bvule ?x2411 (_ bv57 6))))
 (let (($x1833 (not $x1742)))
 (let (($x4174 (or $x1833 $x2019 $x4273)))
 (let (($x4376 (not $x4174)))
 (let (($x4378 (or $x4376 $x4377 $x4372)))
 (let (($x4329 (not $x4378)))
 (let (($x4373 (or $x4174 $x4372)))
 (let (($x392 (= (_ bv10 64) num_bytes_91_64)))
 (let (($x4192 (not $x392)))
 (let (($x4374 (or $x4192 $x4373)))
 (let (($x4375 (not $x4374)))
 (or $x4375 $x4329 $x4291 $x4351 $x4355 $x4309 $x4364 $x4326 $x4593 $x4647 $x4580)))))))))))))))))))))))))))))))))))))))))))))))))))))))))))))))))))))))))))))))))))))))))))))))))))))))))))))))))))))))))))))))))))))))))))))))))))))))))))))))))))))
(assert
 (let ((?x1711 ((_ extract 93 88) file_0_/proc/self/loginuid_0_89_96)))
 (let (($x2064 (bvule ?x1711 (_ bv57 6))))
 (let ((?x1703 ((_ extract 95 94) file_0_/proc/self/loginuid_0_89_96)))
 (let (($x4255 (= (_ bv0 2) ?x1703)))
 (let ((?x143 ((_ extract 95 88) file_0_/proc/self/loginuid_0_89_96)))
 (let (($x1770 (bvule (_ bv48 8) ?x143)))
 (let (($x4583 (and $x1770 $x4255 $x2064)))
 (let ((?x4624 (ite $x4583 num_bytes_93_64 (_ bv0 64))))
 (let ((?x506 (bvadd (_ bv1 64) num_bytes_92_64)))
 (let ((?x1649 ((_ extract 85 80) file_0_/proc/self/loginuid_0_89_96)))
 (let (($x1456 (bvule ?x1649 (_ bv57 6))))
 (let ((?x1587 ((_ extract 87 86) file_0_/proc/self/loginuid_0_89_96)))
 (let (($x4338 (= (_ bv0 2) ?x1587)))
 (let ((?x225 ((_ extract 87 80) file_0_/proc/self/loginuid_0_89_96)))
 (let (($x501 (bvule (_ bv48 8) ?x225)))
 (let (($x4577 (= (_ bv43 8) ?x143)))
 (let (($x4651 (and $x4577 $x501 $x4338 $x1456)))
 (let ((?x4387 (ite $x4651 ?x506 ?x4624)))
 (let ((?x188 (bvadd (_ bv1 64) num_bytes_91_64)))
 (let (($x4650 (= (_ bv45 8) ?x143)))
 (let (($x4664 (and $x4650 $x501 $x4338 $x1456)))
 (let ((?x4616 (ite $x4664 ?x188 ?x4387)))
 (= (_ bv0 64) ?x4616))))))))))))))))))))))))
(assert
 (= (_ bv11 64) filesize_file_0_/proc/self/loginuid_88_64))
(assert
 (let ((?x1587 ((_ extract 87 86) file_0_/proc/self/loginuid_0_89_96)))
 (let (($x4338 (= (_ bv0 2) ?x1587)))
 (let (($x4316 (not $x4338)))
 (let ((?x225 ((_ extract 87 80) file_0_/proc/self/loginuid_0_89_96)))
 (let (($x501 (bvule (_ bv48 8) ?x225)))
 (let (($x2035 (not $x501)))
 (let ((?x1649 ((_ extract 85 80) file_0_/proc/self/loginuid_0_89_96)))
 (let (($x1456 (bvule ?x1649 (_ bv57 6))))
 (let (($x2325 (not $x1456)))
 (let (($x4317 (or $x2325 $x2035 $x4316)))
 (let (($x628 (= (_ bv1 64) num_bytes_92_64)))
 (let (($x4691 (not $x628)))
 (let ((?x407 ((_ extract 79 78) file_0_/proc/self/loginuid_0_89_96)))
 (let (($x4310 (= (_ bv0 2) ?x407)))
 (let (($x4311 (not $x4310)))
 (let ((?x1822 ((_ extract 79 72) file_0_/proc/self/loginuid_0_89_96)))
 (let (($x426 (bvule (_ bv48 8) ?x1822)))
 (let (($x2293 (not $x426)))
 (let ((?x661 ((_ extract 77 72) file_0_/proc/self/loginuid_0_89_96)))
 (let (($x1829 (bvule ?x661 (_ bv57 6))))
 (let (($x1896 (not $x1829)))
 (let (($x4295 (or $x1896 $x2293 $x4311)))
 (let (($x4659 (not $x4295)))
 (let (($x4692 (or $x4659 $x4691 $x4317)))
 (let (($x4693 (not $x4692)))
 (let (($x4599 (not $x4317)))
 (let (($x390 (= (_ bv0 64) num_bytes_92_64)))
 (let (($x4688 (not $x390)))
 (let (($x4689 (or $x4688 $x4599)))
 (let (($x4690 (not $x4689)))
 (let (($x4308 (or $x4317 $x4295)))
 (let (($x1604 (= (_ bv2 64) num_bytes_92_64)))
 (let (($x4685 (not $x1604)))
 (let ((?x1589 ((_ extract 71 70) file_0_/proc/self/loginuid_0_89_96)))
 (let (($x4240 (= (_ bv0 2) ?x1589)))
 (let (($x4341 (not $x4240)))
 (let ((?x1897 ((_ extract 71 64) file_0_/proc/self/loginuid_0_89_96)))
 (let (($x487 (bvule (_ bv48 8) ?x1897)))
 (let (($x2659 (not $x487)))
 (let ((?x2184 ((_ extract 69 64) file_0_/proc/self/loginuid_0_89_96)))
 (let (($x409 (bvule ?x2184 (_ bv57 6))))
 (let (($x2427 (not $x409)))
 (let (($x4337 (or $x2427 $x2659 $x4341)))
 (let (($x4327 (not $x4337)))
 (let (($x4686 (or $x4327 $x4685 $x4308)))
 (let (($x4687 (not $x4686)))
 (let (($x4259 (or $x4337 $x4308)))
 (let (($x166 (= (_ bv3 64) num_bytes_92_64)))
 (let (($x4682 (not $x166)))
 (let ((?x686 ((_ extract 63 62) file_0_/proc/self/loginuid_0_89_96)))
 (let (($x4343 (= (_ bv0 2) ?x686)))
 (let (($x4344 (not $x4343)))
 (let ((?x1961 ((_ extract 63 56) file_0_/proc/self/loginuid_0_89_96)))
 (let (($x2224 (bvule (_ bv48 8) ?x1961)))
 (let (($x533 (not $x2224)))
 (let ((?x1708 ((_ extract 61 56) file_0_/proc/self/loginuid_0_89_96)))
 (let (($x1879 (bvule ?x1708 (_ bv57 6))))
 (let (($x1746 (not $x1879)))
 (let (($x4340 (or $x1746 $x533 $x4344)))
 (let (($x4336 (not $x4340)))
 (let (($x4683 (or $x4336 $x4682 $x4259)))
 (let (($x4684 (not $x4683)))
 (let (($x4262 (or $x4340 $x4259)))
 (let (($x1664 (= (_ bv4 64) num_bytes_92_64)))
 (let (($x4679 (not $x1664)))
 (let ((?x1871 ((_ extract 55 54) file_0_/proc/self/loginuid_0_89_96)))
 (let (($x4237 (= (_ bv0 2) ?x1871)))
 (let (($x4359 (not $x4237)))
 (let ((?x2030 ((_ extract 55 48) file_0_/proc/self/loginuid_0_89_96)))
 (let (($x2735 (bvule (_ bv48 8) ?x2030)))
 (let (($x478 (not $x2735)))
 (let ((?x335 ((_ extract 53 48) file_0_/proc/self/loginuid_0_89_96)))
 (let (($x1207 (bvule ?x335 (_ bv57 6))))
 (let (($x1652 (not $x1207)))
 (let (($x4360 (or $x1652 $x478 $x4359)))
 (let (($x4312 (not $x4360)))
 (let (($x4680 (or $x4312 $x4679 $x4262)))
 (let (($x4681 (not $x4680)))
 (let (($x4368 (or $x4360 $x4262)))
 (let (($x322 (= (_ bv5 64) num_bytes_92_64)))
 (let (($x4676 (not $x322)))
 (let ((?x2657 ((_ extract 47 46) file_0_/proc/self/loginuid_0_89_96)))
 (let (($x4366 (= (_ bv0 2) ?x2657)))
 (let (($x4362 (not $x4366)))
 (let ((?x2091 ((_ extract 47 40) file_0_/proc/self/loginuid_0_89_96)))
 (let (($x2136 (bvule (_ bv48 8) ?x2091)))
 (let (($x2697 (not $x2136)))
 (let ((?x2137 ((_ extract 45 40) file_0_/proc/self/loginuid_0_89_96)))
 (let (($x172 (bvule ?x2137 (_ bv57 6))))
 (let (($x2123 (not $x172)))
 (let (($x4363 (or $x2123 $x2697 $x4362)))
 (let (($x4356 (not $x4363)))
 (let (($x4677 (or $x4356 $x4676 $x4368)))
 (let (($x4678 (not $x4677)))
 (let (($x4369 (or $x4363 $x4368)))
 (let (($x455 (= (_ bv6 64) num_bytes_92_64)))
 (let (($x4323 (not $x455)))
 (let ((?x313 ((_ extract 39 38) file_0_/proc/self/loginuid_0_89_96)))
 (let (($x4252 (= (_ bv0 2) ?x313)))
 (let (($x4138 (not $x4252)))
 (let ((?x2147 ((_ extract 39 32) file_0_/proc/self/loginuid_0_89_96)))
 (let (($x1577 (bvule (_ bv48 8) ?x2147)))
 (let (($x1552 (not $x1577)))
 (let ((?x167 ((_ extract 37 32) file_0_/proc/self/loginuid_0_89_96)))
 (let (($x332 (bvule ?x167 (_ bv57 6))))
 (let (($x2065 (not $x332)))
 (let (($x4195 (or $x2065 $x1552 $x4138)))
 (let (($x4352 (not $x4195)))
 (let (($x4674 (or $x4352 $x4323 $x4369)))
 (let (($x4675 (not $x4674)))
 (let (($x4370 (or $x4195 $x4369)))
 (let (($x1642 (= (_ bv7 64) num_bytes_92_64)))
 (let (($x4550 (not $x1642)))
 (let ((?x2267 ((_ extract 31 30) file_0_/proc/self/loginuid_0_89_96)))
 (let (($x4243 (= (_ bv0 2) ?x2267)))
 (let (($x3927 (not $x4243)))
 (let ((?x2200 ((_ extract 31 24) file_0_/proc/self/loginuid_0_89_96)))
 (let (($x1674 (bvule (_ bv48 8) ?x2200)))
 (let (($x1820 (not $x1674)))
 (let ((?x655 ((_ extract 29 24) file_0_/proc/self/loginuid_0_89_96)))
 (let (($x1903 (bvule ?x655 (_ bv57 6))))
 (let (($x2380 (not $x1903)))
 (let (($x4292 (or $x2380 $x1820 $x3927)))
 (let (($x4348 (not $x4292)))
 (let (($x4542 (or $x4348 $x4550 $x4370)))
 (let (($x4153 (not $x4542)))
 (let (($x4371 (or $x4292 $x4370)))
 (let (($x334 (= (_ bv8 64) num_bytes_92_64)))
 (let (($x4591 (not $x334)))
 (let ((?x2068 ((_ extract 23 22) file_0_/proc/self/loginuid_0_89_96)))
 (let (($x4246 (= (_ bv0 2) ?x2068)))
 (let (($x4177 (not $x4246)))
 (let ((?x2351 ((_ extract 23 16) file_0_/proc/self/loginuid_0_89_96)))
 (let (($x1767 (bvule (_ bv48 8) ?x2351)))
 (let (($x1717 (not $x1767)))
 (let ((?x1765 ((_ extract 21 16) file_0_/proc/self/loginuid_0_89_96)))
 (let (($x2422 (bvule ?x1765 (_ bv57 6))))
 (let (($x771 (not $x2422)))
 (let (($x3853 (or $x771 $x1717 $x4177)))
 (let (($x4330 (not $x3853)))
 (let (($x4571 (or $x4330 $x4591 $x4371)))
 (let (($x4549 (not $x4571)))
 (let (($x4372 (or $x3853 $x4371)))
 (let (($x395 (= (_ bv9 64) num_bytes_92_64)))
 (let (($x4665 (not $x395)))
 (let ((?x2294 ((_ extract 15 14) file_0_/proc/self/loginuid_0_89_96)))
 (let (($x4249 (= (_ bv0 2) ?x2294)))
 (let (($x4273 (not $x4249)))
 (let ((?x2420 ((_ extract 15 8) file_0_/proc/self/loginuid_0_89_96)))
 (let (($x1842 (bvule (_ bv48 8) ?x2420)))
 (let (($x2019 (not $x1842)))
 (let ((?x2411 ((_ extract 13 8) file_0_/proc/self/loginuid_0_89_96)))
 (let (($x1742 (bvule ?x2411 (_ bv57 6))))
 (let (($x1833 (not $x1742)))
 (let (($x4174 (or $x1833 $x2019 $x4273)))
 (let (($x4376 (not $x4174)))
 (let (($x4612 (or $x4376 $x4665 $x4372)))
 (let (($x4630 (not $x4612)))
 (let (($x4373 (or $x4174 $x4372)))
 (let (($x641 (= (_ bv10 64) num_bytes_92_64)))
 (let (($x4617 (not $x641)))
 (let (($x4466 (or $x4617 $x4373)))
 (let (($x4566 (not $x4466)))
 (or $x4566 $x4630 $x4549 $x4153 $x4675 $x4678 $x4681 $x4684 $x4687 $x4690 $x4693)))))))))))))))))))))))))))))))))))))))))))))))))))))))))))))))))))))))))))))))))))))))))))))))))))))))))))))))))))))))))))))))))))))))))))))))))))))))))))))))))))))
(assert
 (let ((?x1703 ((_ extract 95 94) file_0_/proc/self/loginuid_0_89_96)))
 (let (($x4255 (= (_ bv0 2) ?x1703)))
 (let (($x4696 (not $x4255)))
 (let ((?x143 ((_ extract 95 88) file_0_/proc/self/loginuid_0_89_96)))
 (let (($x1770 (bvule (_ bv48 8) ?x143)))
 (let (($x2736 (not $x1770)))
 (let ((?x1711 ((_ extract 93 88) file_0_/proc/self/loginuid_0_89_96)))
 (let (($x2064 (bvule ?x1711 (_ bv57 6))))
 (let (($x2434 (not $x2064)))
 (let (($x4697 (or $x2434 $x2736 $x4696)))
 (let (($x480 (= (_ bv1 64) num_bytes_93_64)))
 (let (($x4731 (not $x480)))
 (let ((?x1587 ((_ extract 87 86) file_0_/proc/self/loginuid_0_89_96)))
 (let (($x4338 (= (_ bv0 2) ?x1587)))
 (let (($x4316 (not $x4338)))
 (let ((?x225 ((_ extract 87 80) file_0_/proc/self/loginuid_0_89_96)))
 (let (($x501 (bvule (_ bv48 8) ?x225)))
 (let (($x2035 (not $x501)))
 (let ((?x1649 ((_ extract 85 80) file_0_/proc/self/loginuid_0_89_96)))
 (let (($x1456 (bvule ?x1649 (_ bv57 6))))
 (let (($x2325 (not $x1456)))
 (let (($x4317 (or $x2325 $x2035 $x4316)))
 (let (($x4599 (not $x4317)))
 (let (($x4732 (or $x4599 $x4731 $x4697)))
 (let (($x4733 (not $x4732)))
 (let (($x4728 (not $x4697)))
 (let (($x1412 (= (_ bv0 64) num_bytes_93_64)))
 (let (($x4727 (not $x1412)))
 (let (($x4729 (or $x4727 $x4728)))
 (let (($x4730 (not $x4729)))
 (let (($x512 (= (_ bv2 64) num_bytes_93_64)))
 (let (($x4724 (not $x512)))
 (let ((?x407 ((_ extract 79 78) file_0_/proc/self/loginuid_0_89_96)))
 (let (($x4310 (= (_ bv0 2) ?x407)))
 (let (($x4311 (not $x4310)))
 (let ((?x1822 ((_ extract 79 72) file_0_/proc/self/loginuid_0_89_96)))
 (let (($x426 (bvule (_ bv48 8) ?x1822)))
 (let (($x2293 (not $x426)))
 (let ((?x661 ((_ extract 77 72) file_0_/proc/self/loginuid_0_89_96)))
 (let (($x1829 (bvule ?x661 (_ bv57 6))))
 (let (($x1896 (not $x1829)))
 (let (($x4295 (or $x1896 $x2293 $x4311)))
 (let (($x4659 (not $x4295)))
 (let (($x4725 (or $x4659 $x4724 $x2434 $x4696 $x2736 $x4317)))
 (let (($x4726 (not $x4725)))
 (let (($x4308 (or $x4317 $x4295)))
 (let (($x1636 (= (_ bv3 64) num_bytes_93_64)))
 (let (($x4721 (not $x1636)))
 (let ((?x1589 ((_ extract 71 70) file_0_/proc/self/loginuid_0_89_96)))
 (let (($x4240 (= (_ bv0 2) ?x1589)))
 (let (($x4341 (not $x4240)))
 (let ((?x1897 ((_ extract 71 64) file_0_/proc/self/loginuid_0_89_96)))
 (let (($x487 (bvule (_ bv48 8) ?x1897)))
 (let (($x2659 (not $x487)))
 (let ((?x2184 ((_ extract 69 64) file_0_/proc/self/loginuid_0_89_96)))
 (let (($x409 (bvule ?x2184 (_ bv57 6))))
 (let (($x2427 (not $x409)))
 (let (($x4337 (or $x2427 $x2659 $x4341)))
 (let (($x4327 (not $x4337)))
 (let (($x4722 (or $x4327 $x4721 $x4697 $x4308)))
 (let (($x4723 (not $x4722)))
 (let (($x4259 (or $x4337 $x4308)))
 (let (($x1631 (= (_ bv4 64) num_bytes_93_64)))
 (let (($x4718 (not $x1631)))
 (let ((?x686 ((_ extract 63 62) file_0_/proc/self/loginuid_0_89_96)))
 (let (($x4343 (= (_ bv0 2) ?x686)))
 (let (($x4344 (not $x4343)))
 (let ((?x1961 ((_ extract 63 56) file_0_/proc/self/loginuid_0_89_96)))
 (let (($x2224 (bvule (_ bv48 8) ?x1961)))
 (let (($x533 (not $x2224)))
 (let ((?x1708 ((_ extract 61 56) file_0_/proc/self/loginuid_0_89_96)))
 (let (($x1879 (bvule ?x1708 (_ bv57 6))))
 (let (($x1746 (not $x1879)))
 (let (($x4340 (or $x1746 $x533 $x4344)))
 (let (($x4336 (not $x4340)))
 (let (($x4719 (or $x4336 $x4718 $x4697 $x4259)))
 (let (($x4720 (not $x4719)))
 (let (($x4262 (or $x4340 $x4259)))
 (let (($x1702 (= (_ bv5 64) num_bytes_93_64)))
 (let (($x4715 (not $x1702)))
 (let ((?x1871 ((_ extract 55 54) file_0_/proc/self/loginuid_0_89_96)))
 (let (($x4237 (= (_ bv0 2) ?x1871)))
 (let (($x4359 (not $x4237)))
 (let ((?x2030 ((_ extract 55 48) file_0_/proc/self/loginuid_0_89_96)))
 (let (($x2735 (bvule (_ bv48 8) ?x2030)))
 (let (($x478 (not $x2735)))
 (let ((?x335 ((_ extract 53 48) file_0_/proc/self/loginuid_0_89_96)))
 (let (($x1207 (bvule ?x335 (_ bv57 6))))
 (let (($x1652 (not $x1207)))
 (let (($x4360 (or $x1652 $x478 $x4359)))
 (let (($x4312 (not $x4360)))
 (let (($x4716 (or $x4312 $x4715 $x4697 $x4262)))
 (let (($x4717 (not $x4716)))
 (let (($x4368 (or $x4360 $x4262)))
 (let (($x475 (= (_ bv6 64) num_bytes_93_64)))
 (let (($x4712 (not $x475)))
 (let ((?x2657 ((_ extract 47 46) file_0_/proc/self/loginuid_0_89_96)))
 (let (($x4366 (= (_ bv0 2) ?x2657)))
 (let (($x4362 (not $x4366)))
 (let ((?x2091 ((_ extract 47 40) file_0_/proc/self/loginuid_0_89_96)))
 (let (($x2136 (bvule (_ bv48 8) ?x2091)))
 (let (($x2697 (not $x2136)))
 (let ((?x2137 ((_ extract 45 40) file_0_/proc/self/loginuid_0_89_96)))
 (let (($x172 (bvule ?x2137 (_ bv57 6))))
 (let (($x2123 (not $x172)))
 (let (($x4363 (or $x2123 $x2697 $x4362)))
 (let (($x4356 (not $x4363)))
 (let (($x4713 (or $x4356 $x4712 $x4697 $x4368)))
 (let (($x4714 (not $x4713)))
 (let (($x4369 (or $x4363 $x4368)))
 (let (($x1635 (= (_ bv7 64) num_bytes_93_64)))
 (let (($x4709 (not $x1635)))
 (let ((?x313 ((_ extract 39 38) file_0_/proc/self/loginuid_0_89_96)))
 (let (($x4252 (= (_ bv0 2) ?x313)))
 (let (($x4138 (not $x4252)))
 (let ((?x2147 ((_ extract 39 32) file_0_/proc/self/loginuid_0_89_96)))
 (let (($x1577 (bvule (_ bv48 8) ?x2147)))
 (let (($x1552 (not $x1577)))
 (let ((?x167 ((_ extract 37 32) file_0_/proc/self/loginuid_0_89_96)))
 (let (($x332 (bvule ?x167 (_ bv57 6))))
 (let (($x2065 (not $x332)))
 (let (($x4195 (or $x2065 $x1552 $x4138)))
 (let (($x4352 (not $x4195)))
 (let (($x4710 (or $x4352 $x4709 $x4697 $x4369)))
 (let (($x4711 (not $x4710)))
 (let (($x4370 (or $x4195 $x4369)))
 (let (($x185 (= (_ bv8 64) num_bytes_93_64)))
 (let (($x4706 (not $x185)))
 (let ((?x2267 ((_ extract 31 30) file_0_/proc/self/loginuid_0_89_96)))
 (let (($x4243 (= (_ bv0 2) ?x2267)))
 (let (($x3927 (not $x4243)))
 (let ((?x2200 ((_ extract 31 24) file_0_/proc/self/loginuid_0_89_96)))
 (let (($x1674 (bvule (_ bv48 8) ?x2200)))
 (let (($x1820 (not $x1674)))
 (let ((?x655 ((_ extract 29 24) file_0_/proc/self/loginuid_0_89_96)))
 (let (($x1903 (bvule ?x655 (_ bv57 6))))
 (let (($x2380 (not $x1903)))
 (let (($x4292 (or $x2380 $x1820 $x3927)))
 (let (($x4348 (not $x4292)))
 (let (($x4707 (or $x4348 $x4706 $x4697 $x4370)))
 (let (($x4708 (not $x4707)))
 (let (($x4371 (or $x4292 $x4370)))
 (let (($x640 (= (_ bv9 64) num_bytes_93_64)))
 (let (($x4703 (not $x640)))
 (let ((?x2068 ((_ extract 23 22) file_0_/proc/self/loginuid_0_89_96)))
 (let (($x4246 (= (_ bv0 2) ?x2068)))
 (let (($x4177 (not $x4246)))
 (let ((?x2351 ((_ extract 23 16) file_0_/proc/self/loginuid_0_89_96)))
 (let (($x1767 (bvule (_ bv48 8) ?x2351)))
 (let (($x1717 (not $x1767)))
 (let ((?x1765 ((_ extract 21 16) file_0_/proc/self/loginuid_0_89_96)))
 (let (($x2422 (bvule ?x1765 (_ bv57 6))))
 (let (($x771 (not $x2422)))
 (let (($x3853 (or $x771 $x1717 $x4177)))
 (let (($x4330 (not $x3853)))
 (let (($x4704 (or $x4330 $x4703 $x4697 $x4371)))
 (let (($x4705 (not $x4704)))
 (let (($x4372 (or $x3853 $x4371)))
 (let (($x700 (= (_ bv10 64) num_bytes_93_64)))
 (let (($x4700 (not $x700)))
 (let ((?x2294 ((_ extract 15 14) file_0_/proc/self/loginuid_0_89_96)))
 (let (($x4249 (= (_ bv0 2) ?x2294)))
 (let (($x4273 (not $x4249)))
 (let ((?x2420 ((_ extract 15 8) file_0_/proc/self/loginuid_0_89_96)))
 (let (($x1842 (bvule (_ bv48 8) ?x2420)))
 (let (($x2019 (not $x1842)))
 (let ((?x2411 ((_ extract 13 8) file_0_/proc/self/loginuid_0_89_96)))
 (let (($x1742 (bvule ?x2411 (_ bv57 6))))
 (let (($x1833 (not $x1742)))
 (let (($x4174 (or $x1833 $x2019 $x4273)))
 (let (($x4376 (not $x4174)))
 (let (($x4701 (or $x4376 $x4700 $x4697 $x4372)))
 (let (($x4702 (not $x4701)))
 (let (($x4373 (or $x4174 $x4372)))
 (let (($x1527 (= (_ bv11 64) num_bytes_93_64)))
 (let (($x4695 (not $x1527)))
 (let (($x4698 (or $x4695 $x4697 $x4373)))
 (let (($x4699 (not $x4698)))
 (or $x4699 $x4702 $x4705 $x4708 $x4711 $x4714 $x4717 $x4720 $x4723 $x4726 $x4730 $x4733))))))))))))))))))))))))))))))))))))))))))))))))))))))))))))))))))))))))))))))))))))))))))))))))))))))))))))))))))))))))))))))))))))))))))))))))))))))))))))))))))))))))))))))))))))
(assert
 (let ((?x3152 ((_ extract 31 31) syscall_stub_ioctl_106_32)))
 (= (_ bv0 1) ?x3152)))
(assert
 (let (($x51703 (= (_ bv0 32) syscall_stub_ioctl_106_32)))
 (not $x51703)))
(assert
 (let ((?x111403 ((_ extract 31 0) syscall_stub_newfstatat_131_64)))
 (bvule ?x111403 (_ bv4294963200 32))))
(assert
 (= (_ bv13 64) syscall_stub_readlink_166_64))
(assert
 (let ((?x457708 (bvadd (_ bv576460752303354917 64) strlen_1378_64)))
 (let ((?x278436 ((_ extract 63 56) mem_7fffffffffef420_193_64)))
 (let (($x457832 (= (_ bv0 8) ?x278436)))
 (let ((?x117226 (ite $x457832 (_ bv576460752303354919 64) (_ bv576460752303354920 64))))
 (let ((?x278435 ((_ extract 55 48) mem_7fffffffffef420_193_64)))
 (let (($x457830 (= (_ bv0 8) ?x278435)))
 (let ((?x117178 (ite $x457830 (_ bv576460752303354918 64) ?x117226)))
 (let ((?x278434 ((_ extract 47 40) mem_7fffffffffef420_193_64)))
 (let (($x457828 (= (_ bv0 8) ?x278434)))
 (let ((?x112064 (ite $x457828 (_ bv576460752303354917 64) ?x117178)))
 (= ?x112064 ?x457708))))))))))))
(assert
 (let ((?x117220 ((_ extract 7 0) mem_7fffffffffef420_193_64)))
 (= (_ bv47 8) ?x117220)))
(assert
 (let ((?x458007 (bvadd (_ bv1 64) strlen_1378_64)))
 (let ((?x458308 ((_ extract 63 3) ?x458007)))
 (= (_ bv0 61) ?x458308))))
(assert
 (let ((?x458201 ((_ extract 2 0) strlen_1378_64)))
 (let ((?x458326 (bvadd (_ bv1 3) ?x458201)))
 (bvule ?x458326 (_ bv4 3)))))
(assert
 (let ((?x458007 (bvadd (_ bv1 64) strlen_1378_64)))
 (let (($x455960 (bvule (_ bv31 64) strlen_1378_64)))
 (let (($x457998 (bvule strlen_1378_64 (_ bv18446744073709551614 64))))
 (let (($x458390 (and $x457998 $x455960)))
 (let ((?x458523 (ite $x458390 (_ bv32 64) ?x458007)))
 (bvule (_ bv1 64) ?x458523)))))))
(assert
 (let (($x455960 (bvule (_ bv31 64) strlen_1378_64)))
 (let (($x458013 (not $x455960)))
 (let (($x457998 (bvule strlen_1378_64 (_ bv18446744073709551614 64))))
 (let (($x455949 (not $x457998)))
 (or $x455949 $x458013))))))
(assert
 (let ((?x275734 ((_ extract 31 0) syscall_stub_newfstatat_282_64)))
 (bvule ?x275734 (_ bv4294963200 32))))
(assert
 (= mem_7fffffffffeefa8_452_64 mem_7fffffffffef038_451_64))
(assert
 (= mem_7fffffffffef030_500_64 mem_7fffffffffeefa0_499_64))
(assert
 (let ((?x439370 ((_ extract 15 12) mem_7fffffffffef048_551_32)))
 (= (_ bv2 4) ?x439370)))
(assert
 (= mem_7fffffffffef058_613_64 mem_7fffffffffeefc8_612_64))
(assert
 (let (($x482063 (= (_ bv4294967295 32) access_2743_32)))
 (let (($x482031 (= (_ bv0 32) access_2743_32)))
 (or $x482031 $x482063))))
(assert
 (= (_ bv0 32) access_2743_32))
(assert
 (let (($x525216 (= (_ bv4294967295 32) access_3132_32)))
 (let (($x525205 (= (_ bv0 32) access_3132_32)))
 (or $x525205 $x525216))))
(assert
 (= (_ bv0 32) access_3132_32))
(assert
 (let ((?x480894 ((_ extract 15 8) mem_2c_3785_264)))
 (let (($x478191 (= (_ bv0 8) ?x480894)))
 (let ((?x481292 ((_ extract 23 16) mem_2c_3785_264)))
 (let (($x894671 (= (_ bv0 8) ?x481292)))
 (let ((?x478158 ((_ extract 31 24) mem_2c_3785_264)))
 (let (($x475426 (= (_ bv0 8) ?x478158)))
 (let ((?x894665 ((_ extract 39 32) mem_2c_3785_264)))
 (let (($x479927 (= (_ bv0 8) ?x894665)))
 (let ((?x481517 ((_ extract 47 40) mem_2c_3785_264)))
 (let (($x893735 (= (_ bv0 8) ?x481517)))
 (let ((?x480502 ((_ extract 55 48) mem_2c_3785_264)))
 (let (($x895119 (= (_ bv0 8) ?x480502)))
 (let ((?x476651 ((_ extract 63 56) mem_2c_3785_264)))
 (let (($x895618 (= (_ bv0 8) ?x476651)))
 (let ((?x481404 ((_ extract 71 64) mem_2c_3785_264)))
 (let (($x477104 (= (_ bv0 8) ?x481404)))
 (let ((?x479695 ((_ extract 79 72) mem_2c_3785_264)))
 (let (($x476961 (= (_ bv0 8) ?x479695)))
 (let ((?x479738 ((_ extract 87 80) mem_2c_3785_264)))
 (let (($x480002 (= (_ bv0 8) ?x479738)))
 (let ((?x894253 ((_ extract 95 88) mem_2c_3785_264)))
 (let (($x894849 (= (_ bv0 8) ?x894253)))
 (let ((?x479379 ((_ extract 103 96) mem_2c_3785_264)))
 (let (($x894431 (= (_ bv0 8) ?x479379)))
 (let ((?x475614 ((_ extract 111 104) mem_2c_3785_264)))
 (let (($x480524 (= (_ bv0 8) ?x475614)))
 (let ((?x479559 ((_ extract 119 112) mem_2c_3785_264)))
 (let (($x477771 (= (_ bv0 8) ?x479559)))
 (let ((?x476117 ((_ extract 127 120) mem_2c_3785_264)))
 (let (($x481347 (= (_ bv0 8) ?x476117)))
 (let ((?x480895 ((_ extract 135 128) mem_2c_3785_264)))
 (let (($x480856 (= (_ bv0 8) ?x480895)))
 (let ((?x895572 ((_ extract 143 136) mem_2c_3785_264)))
 (let (($x475811 (= (_ bv0 8) ?x895572)))
 (let ((?x894788 ((_ extract 151 144) mem_2c_3785_264)))
 (let (($x475418 (= (_ bv0 8) ?x894788)))
 (let ((?x477850 ((_ extract 159 152) mem_2c_3785_264)))
 (let (($x893748 (= (_ bv0 8) ?x477850)))
 (let ((?x895823 ((_ extract 167 160) mem_2c_3785_264)))
 (let (($x477117 (= (_ bv0 8) ?x895823)))
 (let ((?x479184 ((_ extract 175 168) mem_2c_3785_264)))
 (let (($x475728 (= (_ bv0 8) ?x479184)))
 (let ((?x480948 ((_ extract 183 176) mem_2c_3785_264)))
 (let (($x478566 (= (_ bv0 8) ?x480948)))
 (let ((?x475808 ((_ extract 191 184) mem_2c_3785_264)))
 (let (($x479048 (= (_ bv0 8) ?x475808)))
 (let ((?x479915 ((_ extract 199 192) mem_2c_3785_264)))
 (let (($x478341 (= (_ bv0 8) ?x479915)))
 (let ((?x894879 ((_ extract 207 200) mem_2c_3785_264)))
 (let (($x481711 (= (_ bv0 8) ?x894879)))
 (let ((?x479369 ((_ extract 215 208) mem_2c_3785_264)))
 (let (($x475667 (= (_ bv0 8) ?x479369)))
 (let ((?x480965 ((_ extract 223 216) mem_2c_3785_264)))
 (let (($x894868 (= (_ bv0 8) ?x480965)))
 (let ((?x894859 ((_ extract 231 224) mem_2c_3785_264)))
 (let (($x478572 (= (_ bv0 8) ?x894859)))
 (let ((?x479642 ((_ extract 239 232) mem_2c_3785_264)))
 (let (($x479203 (= (_ bv0 8) ?x479642)))
 (let ((?x480801 ((_ extract 247 240) mem_2c_3785_264)))
 (let (($x480233 (= (_ bv0 8) ?x480801)))
 (let ((?x894961 ((_ extract 255 248) mem_2c_3785_264)))
 (let (($x475979 (= (_ bv0 8) ?x894961)))
 (let ((?x478666 ((_ extract 263 256) mem_2c_3785_264)))
 (let (($x480215 (= (_ bv0 8) ?x478666)))
 (or $x480215 $x475979 $x480233 $x479203 $x478572 $x894868 $x475667 $x481711 $x478341 $x479048 $x478566 $x475728 $x477117 $x893748 $x475418 $x475811 $x480856 $x481347 $x477771 $x480524 $x894431 $x894849 $x480002 $x476961 $x477104 $x895618 $x895119 $x893735 $x479927 $x475426 $x894671 $x478191))))))))))))))))))))))))))))))))))))))))))))))))))))))))))))))))))
(assert
 (let ((?x480894 ((_ extract 15 8) mem_2c_3785_264)))
 (let (($x478191 (= (_ bv0 8) ?x480894)))
 (let ((?x478136 (ite $x478191 (_ bv75 64) (_ bv0 64))))
 (let ((?x481292 ((_ extract 23 16) mem_2c_3785_264)))
 (let (($x894671 (= (_ bv0 8) ?x481292)))
 (let ((?x894297 (ite $x894671 (_ bv74 64) ?x478136)))
 (let ((?x478158 ((_ extract 31 24) mem_2c_3785_264)))
 (let (($x475426 (= (_ bv0 8) ?x478158)))
 (let ((?x894308 (ite $x475426 (_ bv73 64) ?x894297)))
 (let ((?x894665 ((_ extract 39 32) mem_2c_3785_264)))
 (let (($x479927 (= (_ bv0 8) ?x894665)))
 (let ((?x895391 (ite $x479927 (_ bv72 64) ?x894308)))
 (let ((?x481517 ((_ extract 47 40) mem_2c_3785_264)))
 (let (($x893735 (= (_ bv0 8) ?x481517)))
 (let ((?x477731 (ite $x893735 (_ bv71 64) ?x895391)))
 (let ((?x480502 ((_ extract 55 48) mem_2c_3785_264)))
 (let (($x895119 (= (_ bv0 8) ?x480502)))
 (let ((?x481164 (ite $x895119 (_ bv70 64) ?x477731)))
 (let ((?x476651 ((_ extract 63 56) mem_2c_3785_264)))
 (let (($x895618 (= (_ bv0 8) ?x476651)))
 (let ((?x480499 (ite $x895618 (_ bv69 64) ?x481164)))
 (let ((?x481404 ((_ extract 71 64) mem_2c_3785_264)))
 (let (($x477104 (= (_ bv0 8) ?x481404)))
 (let ((?x479750 (ite $x477104 (_ bv68 64) ?x480499)))
 (let ((?x479695 ((_ extract 79 72) mem_2c_3785_264)))
 (let (($x476961 (= (_ bv0 8) ?x479695)))
 (let ((?x477276 (ite $x476961 (_ bv67 64) ?x479750)))
 (let ((?x479738 ((_ extract 87 80) mem_2c_3785_264)))
 (let (($x480002 (= (_ bv0 8) ?x479738)))
 (let ((?x481463 (ite $x480002 (_ bv66 64) ?x477276)))
 (let ((?x894253 ((_ extract 95 88) mem_2c_3785_264)))
 (let (($x894849 (= (_ bv0 8) ?x894253)))
 (let ((?x894208 (ite $x894849 (_ bv65 64) ?x481463)))
 (let ((?x479379 ((_ extract 103 96) mem_2c_3785_264)))
 (let (($x894431 (= (_ bv0 8) ?x479379)))
 (let ((?x480434 (ite $x894431 (_ bv64 64) ?x894208)))
 (let ((?x475614 ((_ extract 111 104) mem_2c_3785_264)))
 (let (($x480524 (= (_ bv0 8) ?x475614)))
 (let ((?x475865 (ite $x480524 (_ bv63 64) ?x480434)))
 (let ((?x479559 ((_ extract 119 112) mem_2c_3785_264)))
 (let (($x477771 (= (_ bv0 8) ?x479559)))
 (let ((?x478995 (ite $x477771 (_ bv62 64) ?x475865)))
 (let ((?x476117 ((_ extract 127 120) mem_2c_3785_264)))
 (let (($x481347 (= (_ bv0 8) ?x476117)))
 (let ((?x480947 (ite $x481347 (_ bv61 64) ?x478995)))
 (let ((?x480895 ((_ extract 135 128) mem_2c_3785_264)))
 (let (($x480856 (= (_ bv0 8) ?x480895)))
 (let ((?x477448 (ite $x480856 (_ bv60 64) ?x480947)))
 (let ((?x895572 ((_ extract 143 136) mem_2c_3785_264)))
 (let (($x475811 (= (_ bv0 8) ?x895572)))
 (let ((?x478877 (ite $x475811 (_ bv59 64) ?x477448)))
 (let ((?x894788 ((_ extract 151 144) mem_2c_3785_264)))
 (let (($x475418 (= (_ bv0 8) ?x894788)))
 (let ((?x479672 (ite $x475418 (_ bv58 64) ?x478877)))
 (let ((?x477850 ((_ extract 159 152) mem_2c_3785_264)))
 (let (($x893748 (= (_ bv0 8) ?x477850)))
 (let ((?x893913 (ite $x893748 (_ bv57 64) ?x479672)))
 (let ((?x895823 ((_ extract 167 160) mem_2c_3785_264)))
 (let (($x477117 (= (_ bv0 8) ?x895823)))
 (let ((?x478444 (ite $x477117 (_ bv56 64) ?x893913)))
 (let ((?x479184 ((_ extract 175 168) mem_2c_3785_264)))
 (let (($x475728 (= (_ bv0 8) ?x479184)))
 (let ((?x480910 (ite $x475728 (_ bv55 64) ?x478444)))
 (let ((?x480948 ((_ extract 183 176) mem_2c_3785_264)))
 (let (($x478566 (= (_ bv0 8) ?x480948)))
 (let ((?x475871 (ite $x478566 (_ bv54 64) ?x480910)))
 (let ((?x475808 ((_ extract 191 184) mem_2c_3785_264)))
 (let (($x479048 (= (_ bv0 8) ?x475808)))
 (let ((?x894892 (ite $x479048 (_ bv53 64) ?x475871)))
 (let ((?x479915 ((_ extract 199 192) mem_2c_3785_264)))
 (let (($x478341 (= (_ bv0 8) ?x479915)))
 (let ((?x895955 (ite $x478341 (_ bv52 64) ?x894892)))
 (let ((?x894879 ((_ extract 207 200) mem_2c_3785_264)))
 (let (($x481711 (= (_ bv0 8) ?x894879)))
 (let ((?x894156 (ite $x481711 (_ bv51 64) ?x895955)))
 (let ((?x479369 ((_ extract 215 208) mem_2c_3785_264)))
 (let (($x475667 (= (_ bv0 8) ?x479369)))
 (let ((?x477484 (ite $x475667 (_ bv50 64) ?x894156)))
 (let ((?x480965 ((_ extract 223 216) mem_2c_3785_264)))
 (let (($x894868 (= (_ bv0 8) ?x480965)))
 (let ((?x476946 (ite $x894868 (_ bv49 64) ?x477484)))
 (let ((?x894859 ((_ extract 231 224) mem_2c_3785_264)))
 (let (($x478572 (= (_ bv0 8) ?x894859)))
 (let ((?x476504 (ite $x478572 (_ bv48 64) ?x476946)))
 (let ((?x479642 ((_ extract 239 232) mem_2c_3785_264)))
 (let (($x479203 (= (_ bv0 8) ?x479642)))
 (let ((?x479963 (ite $x479203 (_ bv47 64) ?x476504)))
 (let ((?x480801 ((_ extract 247 240) mem_2c_3785_264)))
 (let (($x480233 (= (_ bv0 8) ?x480801)))
 (let ((?x893718 (ite $x480233 (_ bv46 64) ?x479963)))
 (let ((?x894961 ((_ extract 255 248) mem_2c_3785_264)))
 (let (($x475979 (= (_ bv0 8) ?x894961)))
 (let ((?x479107 (ite $x475979 (_ bv45 64) ?x893718)))
 (let ((?x478666 ((_ extract 263 256) mem_2c_3785_264)))
 (let (($x480215 (= (_ bv0 8) ?x478666)))
 (let ((?x894705 (ite $x480215 (_ bv44 64) ?x479107)))
 (let ((?x894706 (bvsub ?x894705 (_ bv44 64))))
 (= ?x894706 strlen_3786_64)))))))))))))))))))))))))))))))))))))))))))))))))))))))))))))))))))))))))))))))))))))))))))))))))))
(assert
 (let ((?x900302 (bvadd strlen_3786_64 (_ bv1 64))))
 (bvule ?x900302 (_ bv1024 64))))
(maximize mem_7fffffffffef058_613_64)
(minimize mem_7fffffffffef030_500_64)
(minimize access_2743_32)
(minimize strncmp_ret_86_32)
(maximize file_0_/proc/self/loginuid_0_89_96)
(minimize access_3132_32)
(maximize strncmp_ret_84_32)
(maximize strncmp_ret_86_32)
(minimize syscall_stub_ioctl_106_32)
(maximize mem_7fffffffffeefa8_452_64)
(minimize strlen_3786_64)
(minimize num_bytes_92_64)
(minimize mem_2c_3785_264)
(maximize num_bytes_93_64)
(minimize filesize_file_0_/proc/self/loginuid_88_64)
(minimize strncmp_ret_84_32)
(minimize num_bytes_91_64)
(minimize args_1_8)
(minimize syscall_stub_readlink_166_64)
(maximize mem_7fffffffffef038_451_64)
(maximize access_3132_32)
(minimize mem_7fffffffffef058_613_64)
(maximize access_2743_32)
(maximize num_bytes_92_64)
(maximize mem_7fffffffffeefc8_612_64)
(maximize mem_2c_3785_264)
(maximize strlen_83_64)
(minimize strlen_83_64)
(maximize mem_7fffffffffef420_193_64)
(maximize syscall_stub_ioctl_106_32)
(maximize syscall_stub_newfstatat_131_64)
(minimize mem_7fffffffffef038_451_64)
(minimize num_bytes_93_64)
(maximize mem_7fffffffffef048_551_32)
(maximize mem_7fffffffffef030_500_64)
(maximize strlen_1378_64)
(minimize mem_7fffffffffef420_193_64)
(minimize mem_7fffffffffef048_551_32)
(minimize strlen_1378_64)
(maximize filesize_file_0_/proc/self/loginuid_88_64)
(maximize mem_7fffffffffeefa0_499_64)
(minimize syscall_stub_newfstatat_131_64)
(minimize mem_7fffffffffeefa8_452_64)
(minimize strlen_85_64)
(maximize strlen_85_64)
(maximize syscall_stub_readlink_166_64)
(minimize file_0_/proc/self/loginuid_0_89_96)
(minimize mem_7fffffffffeefa0_499_64)
(maximize syscall_stub_newfstatat_282_64)
(check-sat)
(get-objectives)
